
  32    1
  10

   0   0  10 2 3 4 5 6 7 8 9 10 12 
   1   3  10 30 29 28 27 26 20 19 18 17 16 
   8   4   8 31 29 28 25 22 20 17 11 
   5   8   7 29 28 27 25 19 14 13 
   6  10   7 31 29 28 27 23 21 15 
   1   9   7 31 30 27 26 24 20 18 
  10  10   6 28 27 26 23 18 17 
   2   4   5 28 26 25 23 17 
   4   5   4 28 25 22 17 
   5  10   3 21 19 17 
   3   7   4 27 26 24 23 
   2  10   4 27 26 24 23 
  10   5   3 30 23 17 
   2  10   3 26 24 23 
   6   6   2 25 17 
   7  10   2 25 24 
   5  10   1 24 
   3   6   1 25 
   5  10   1 23 
   5   9   1 23 
   7   8   1 25 
   1   7   1 23 
  10  10   1 32
   1   8   1 32
   1   7   1 32
  10   9   1 32
   2   6   1 32
  10  10   1 32
   9   9   1 32
   8  10   1 32
   6  10   1 32
   0   0   0 
